c turning on binary mode checking
c parsing input formula with 202048 variables and 780985 clauses
c finished parsing, read 18500969 bytes from proof file
c detected empty clause; start verification via backward checking
c 14768 of 780985 clauses in core                            
c 22752 of 486105 lemmas in core using 219732 resolution steps
c 0 RAT lemmas in core; 2005 redundant literals in core lemmas
s VERIFIED
c verification time: 2.465 seconds
